NAME: PointSet_Angle_55_2
TYPE: TSP
COMMENT: Points chosen discrete uniformly at random out of ${0, \ldots, 500}^2$.
DIMENSION: 55
EDGE_WEIGHT_TYPE: EUC_2D
NODE_COORD_SECTION
1 324 491
2 440 435
3 447 211
4 38 88
5 263 143
6 449 387
7 342 171
8 447 307
9 85 449
10 450 382
11 264 425
12 297 426
13 411 410
14 468 52
15 367 220
16 131 437
17 457 317
18 371 403
19 274 155
20 237 37
21 299 433
22 170 140
23 103 116
24 194 188
25 311 143
26 316 75
27 67 113
28 0 224
29 269 468
30 23 382
31 434 401
32 64 390
33 218 435
34 39 238
35 336 22
36 275 134
37 455 191
38 21 57
39 308 462
40 246 118
41 104 61
42 193 418
43 421 193
44 389 436
45 407 412
46 317 86
47 312 381
48 223 276
49 61 262
50 261 398
51 284 35
52 278 486
53 227 45
54 42 281
55 6 34
EOF
